# Solution for model GasLib-40
# Objective value = 9.9558342578123842e+01
loadshed[innode_1] 0
loadshed[innode_2] 0
loadshed[innode_3] 0
loadshed[innode_4] 0
loadshed[innode_5] 0
loadshed[innode_6] 0
loadshed[innode_7] 0
loadshed[innode_8] 0
loadshed[source_1] 3.7849499032365896e-02
loadshed[source_2] 2.8640247071566405e-01
loadshed[source_3] 3.0550429342995344e-01
loadshed[sink_1] 1
loadshed[sink_2] 0
loadshed[sink_3] 0
loadshed[sink_4] 0
loadshed[sink_5] 0
loadshed[sink_6] 0
loadshed[sink_7] 0
loadshed[sink_8] 0
loadshed[sink_9] 9.9578296728620352e-01
loadshed[sink_10] 0
loadshed[sink_11] 0
loadshed[sink_12] 1
loadshed[sink_13] 0
loadshed[sink_14] 0
loadshed[sink_15] 0
loadshed[sink_16] 0
loadshed[sink_17] 0
loadshed[sink_18] 0
loadshed[sink_19] 0
loadshed[sink_20] 0
loadshed[sink_21] 1
loadshed[sink_22] 1.4964168744520412e-01
loadshed[sink_23] 0
loadshed[sink_24] 9.4221922265705627e-01
loadshed[sink_25] 0
loadshed[sink_26] 1
loadshed[sink_27] 0
loadshed[sink_28] 0
loadshed[sink_29] 0
flow[source_1,sink_3] 1.5210663996200131e+02
flow[innode_1,sink_16] 1.6354166666666970e+01
flow[innode_6,sink_13] 4.6861474995341652e+00
flow[sink_13,sink_14] -1.1668019167132503e+01
flow[sink_14,sink_10] -2.8022185833799170e+01
flow[sink_25,sink_26] 0
flow[sink_26,sink_9] 0
flow[sink_9,sink_18] -6.8966055838792784e-02
flow[sink_26,sink_4] 0
flow[sink_4,sink_20] -6.3506309115799567e+01
flow[sink_18,sink_6] -1.6423132722505461e+01
flow[sink_25,innode_8] -1.1939830662866494e+02
flow[sink_6,sink_7] -4.6684200959078680e+01
flow[sink_6,sink_22] 1.3906901569906559e+01
flow[sink_7,sink_24] 9.4495646279606071e-01
flow[sink_22,sink_1] 0
flow[sink_24,sink_21] 0
flow[sink_21,sink_12] 0
flow[sink_7,sink_5] -6.3983324088541409e+01
flow[sink_5,sink_17] -8.0337490755208080e+01
flow[sink_17,sink_4] -4.7152142449132896e+01
flow[sink_17,sink_8] -4.9539514972741856e+01
flow[sink_3,sink_23] 16.3541666666697
flow[sink_8,sink_20] -6.5893681639408527e+01
flow[sink_25,sink_20] 1.4575415742187479e+02
flow[sink_25,sink_15] -4.7396164959411024e+01
flow[sink_15,sink_29] -6.3750331626077696e+01
flow[sink_29,sink_28] 1.6354166666667879e+01
flow[sink_29,sink_2] 1.6354166666684250e+01
flow[sink_2,sink_15] 0
flow[sink_29,innode_7] -1.1281283162609658e+02
flow[innode_4,sink_19] 4.2170110302954832e+01
flow[sink_19,innode_3] 3.7617001312612132e+01
flow[innode_4,innode_5] 6.7622908864177873e+01
flow[sink_27,innode_5] -6.7622908864177873e+01
flow[sink_27,sink_19] 51.2687421975112
flow[sink_10,sink_11] 3.2708333333333641e+01
flow[sink_10,innode_2] -3.9467684521187344e+01
flow[sink_10,innode_3] -3.7617001312612132e+01
flow[innode_6,sink_25] -4.6861474995341652e+00
flow[sink_11,innode_1] 1.6354166666666970e+01
flow[sink_19,innode_2] 3.9467684521187344e+01
flow[source_3,innode_4] 1.0979301916713271e+02
flow[source_2,innode_7] 1.1281283162609658e+02
flow[sink_3,innode_8] 1.1939830662866494e+02
pressure[innode_1] 7.7067099940149788e+01
pressure[innode_2] 7.9304831381573834e+01
pressure[innode_3] 7.9221532791830356e+01
pressure[innode_4] 81.01325
pressure[innode_5] 8.0966735397516189e+01
pressure[innode_6] 7.5898344238896641e+01
pressure[innode_7] 81.01325
pressure[innode_8] 8.0504815609449636e+01
pressure[source_1] 81.01325
pressure[source_2] 81.01325
pressure[source_3] 81.01325
pressure[sink_1] 1.0132500000000002e+00
pressure[sink_2] 77.5816791992984
pressure[sink_3] 8.0504815609449636e+01
pressure[sink_4] 3.6491880648426665e+01
pressure[sink_5] 2.8705318878203506e+01
pressure[sink_6] 1.4542919392373965e+00
pressure[sink_7] 2.0951547401125756e+00
pressure[sink_8] 3.6559135843821117e+01
pressure[sink_9] 1.0132499999999152e+00
pressure[sink_10] 7.7218801247753333e+01
pressure[sink_11] 7.7067099940149788e+01
pressure[sink_12] 1.01325
pressure[sink_13] 7.5872510290859708e+01
pressure[sink_14] 7.5893391205054769e+01
pressure[sink_15] 76.1282618228078
pressure[sink_16] 7.6045450105332108e+01
pressure[sink_17] 3.4689881243404450e+01
pressure[sink_18] 1.0157453974543604e+00
pressure[sink_19] 7.9304831381573834e+01
pressure[sink_20] 4.1150998773383066e+01
pressure[sink_21] 1.01325
pressure[sink_22] 1.0132500000000002e+00
pressure[sink_23] 8.0340097597789850e+01
pressure[sink_24] 1.01325
pressure[sink_25] 7.5898344238896641e+01
pressure[sink_26] 1.0132500000000004e+00
pressure[sink_27] 8.0405590207643570e+01
pressure[sink_28] 7.7700666424144885e+01
pressure[sink_29] 7.7995948697762060e+01
interdiction[source_1,sink_3] 0
interdiction[innode_1,sink_16] 0
interdiction[innode_6,sink_13] 0
interdiction[sink_13,sink_14] 0
interdiction[sink_14,sink_10] 0
interdiction[sink_25,sink_26] 1
interdiction[sink_26,sink_9] 0
interdiction[sink_9,sink_18] 0
interdiction[sink_26,sink_4] 1
interdiction[sink_4,sink_20] 0
interdiction[sink_18,sink_6] 0
interdiction[sink_25,innode_8] 0
interdiction[sink_6,sink_7] 0
interdiction[sink_6,sink_22] 0
interdiction[sink_7,sink_24] 0
interdiction[sink_22,sink_1] 0
interdiction[sink_24,sink_21] 0
interdiction[sink_21,sink_12] 0
interdiction[sink_7,sink_5] 0
interdiction[sink_5,sink_17] 0
interdiction[sink_17,sink_4] 0
interdiction[sink_17,sink_8] 0
interdiction[sink_3,sink_23] 0
interdiction[sink_8,sink_20] 0
interdiction[sink_25,sink_20] 0
interdiction[sink_25,sink_15] 0
interdiction[sink_15,sink_29] 0
interdiction[sink_29,sink_28] 0
interdiction[sink_29,sink_2] 0
interdiction[sink_2,sink_15] 1
interdiction[sink_29,innode_7] 0
interdiction[innode_4,sink_19] 0
interdiction[sink_19,innode_3] 0
interdiction[innode_4,innode_5] 0
interdiction[sink_27,innode_5] 0
interdiction[sink_27,sink_19] 0
interdiction[sink_10,sink_11] 0
interdiction[sink_10,innode_2] 0
interdiction[sink_10,innode_3] 0
interdiction[innode_6,sink_25] 0
interdiction[sink_11,innode_1] 0
interdiction[sink_19,innode_2] 0
interdiction[source_3,innode_4] 0
interdiction[source_2,innode_7] 0
interdiction[sink_3,innode_8] 0
WCcheckFlow[source_1,sink_3] 39
WCcheckFlow[innode_1,sink_16] 1
WCcheckFlow[innode_6,sink_13] 13
WCcheckFlow[sink_13,sink_14] 12
WCcheckFlow[sink_14,sink_10] 11
WCcheckFlow[sink_25,sink_26] 0
WCcheckFlow[sink_26,sink_9] -1
WCcheckFlow[sink_9,sink_18] -2
WCcheckFlow[sink_26,sink_4] 0
WCcheckFlow[sink_4,sink_20] -14
WCcheckFlow[sink_18,sink_6] -3
WCcheckFlow[sink_25,innode_8] -36
WCcheckFlow[sink_6,sink_7] -6
WCcheckFlow[sink_6,sink_22] 2
WCcheckFlow[sink_7,sink_24] 3
WCcheckFlow[sink_22,sink_1] 1
WCcheckFlow[sink_24,sink_21] 2
WCcheckFlow[sink_21,sink_12] 1
WCcheckFlow[sink_7,sink_5] -10
WCcheckFlow[sink_5,sink_17] -11
WCcheckFlow[sink_17,sink_4] -13
WCcheckFlow[sink_17,sink_8] 1
WCcheckFlow[sink_3,sink_23] 1
WCcheckFlow[sink_8,sink_20] 0
WCcheckFlow[sink_25,sink_20] 15
WCcheckFlow[sink_25,sink_15] 6
WCcheckFlow[sink_15,sink_29] 5
WCcheckFlow[sink_29,sink_28] 1
WCcheckFlow[sink_29,sink_2] 1
WCcheckFlow[sink_2,sink_15] 0
WCcheckFlow[sink_29,innode_7] 2
WCcheckFlow[innode_4,sink_19] -4
WCcheckFlow[sink_19,innode_3] -5
WCcheckFlow[innode_4,innode_5] 2
WCcheckFlow[sink_27,innode_5] -1
WCcheckFlow[sink_27,sink_19] 0
WCcheckFlow[sink_10,sink_11] 3
WCcheckFlow[sink_10,innode_2] 1
WCcheckFlow[sink_10,innode_3] 6
WCcheckFlow[innode_6,sink_25] -14
WCcheckFlow[sink_11,innode_1] 2
WCcheckFlow[sink_19,innode_2] 0
WCcheckFlow[source_3,innode_4] -1
WCcheckFlow[source_2,innode_7] -1
WCcheckFlow[sink_3,innode_8] 37
